(set-info :smt-lib-version 2.6)
(set-info :category "crafted")
(set-logic QF_FF)
(define-sort FF0 () (_ FiniteField 52435875175126190479447740508185965837690552500527637822603658699938581184513))
(declare-fun _10_alt () FF0)
(declare-fun _9_alt () FF0)
(declare-fun _5_alt () FF0)
(declare-fun _8_alt () FF0)
(declare-fun _4_alt () FF0)
(declare-fun _7_alt () FF0)
(declare-fun _3_alt () FF0)
(declare-fun _6_alt () FF0)
(declare-fun _2_alt () FF0)
(declare-fun _1_alt () FF0)
(declare-fun _0_alt () FF0)
(declare-fun _10 () FF0)
(declare-fun _9 () FF0)
(declare-fun _5 () FF0)
(declare-fun _8 () FF0)
(declare-fun _4 () FF0)
(declare-fun _7 () FF0)
(declare-fun _3 () FF0)
(declare-fun _6 () FF0)
(declare-fun _2 () FF0)
(declare-fun _1 () FF0)
(declare-fun _0 () FF0)
(declare-fun out_alt () FF0)
(declare-fun out () FF0)
(assert 
  (let ((let0 (as ff52435875175126190479447740508185965837690552500527637822603658699938581184512 FF0)))
  (let ((let1 _10_alt))
  (let ((let2 (ff.mul let1 let0)))
  (let ((let3 _9_alt))
  (let ((let4 _5_alt))
  (let ((let5 (ff.add let4 let3 let2)))
  (let ((let6 (ff.mul let3 let4)))
  (let ((let7 (= let6 let5)))
  (let ((let8 (ff.mul let3 let0)))
  (let ((let9 _8_alt))
  (let ((let10 _4_alt))
  (let ((let11 (ff.add let10 let9 let8)))
  (let ((let12 (ff.mul let9 let10)))
  (let ((let13 (= let12 let11)))
  (let ((let14 (ff.mul let9 let0)))
  (let ((let15 _7_alt))
  (let ((let16 _3_alt))
  (let ((let17 (ff.add let16 let15 let14)))
  (let ((let18 (ff.mul let15 let16)))
  (let ((let19 (= let18 let17)))
  (let ((let20 (ff.mul let15 let0)))
  (let ((let21 _6_alt))
  (let ((let22 _2_alt))
  (let ((let23 (ff.add let22 let21 let20)))
  (let ((let24 (ff.mul let21 let22)))
  (let ((let25 (= let24 let23)))
  (let ((let26 (ff.mul let21 let0)))
  (let ((let27 _1_alt))
  (let ((let28 _0_alt))
  (let ((let29 (ff.add let28 let27 let26)))
  (let ((let30 (ff.mul let28 let27)))
  (let ((let31 (= let30 let29)))
  (let ((let32 (ff.mul let4 let4)))
  (let ((let33 (= let32 let4)))
  (let ((let34 (ff.mul let10 let10)))
  (let ((let35 (= let34 let10)))
  (let ((let36 (ff.mul let16 let16)))
  (let ((let37 (= let36 let16)))
  (let ((let38 (ff.mul let22 let22)))
  (let ((let39 (= let38 let22)))
  (let ((let40 (ff.mul let27 let27)))
  (let ((let41 (= let40 let27)))
  (let ((let42 (ff.mul let28 let28)))
  (let ((let43 (= let42 let28)))
  (let ((let44 (and let43 let41 let39 let37 let35 let33 let31 let25 let19 let13 let7)))
  (let ((let45 _10))
  (let ((let46 (ff.mul let45 let0)))
  (let ((let47 _9))
  (let ((let48 _5))
  (let ((let49 (ff.add let48 let47 let46)))
  (let ((let50 (ff.mul let47 let48)))
  (let ((let51 (= let50 let49)))
  (let ((let52 (ff.mul let47 let0)))
  (let ((let53 _8))
  (let ((let54 _4))
  (let ((let55 (ff.add let54 let53 let52)))
  (let ((let56 (ff.mul let53 let54)))
  (let ((let57 (= let56 let55)))
  (let ((let58 (ff.mul let53 let0)))
  (let ((let59 _7))
  (let ((let60 _3))
  (let ((let61 (ff.add let60 let59 let58)))
  (let ((let62 (ff.mul let59 let60)))
  (let ((let63 (= let62 let61)))
  (let ((let64 (ff.mul let59 let0)))
  (let ((let65 _6))
  (let ((let66 _2))
  (let ((let67 (ff.add let66 let65 let64)))
  (let ((let68 (ff.mul let65 let66)))
  (let ((let69 (= let68 let67)))
  (let ((let70 (ff.mul let65 let0)))
  (let ((let71 _1))
  (let ((let72 _0))
  (let ((let73 (ff.add let72 let71 let70)))
  (let ((let74 (ff.mul let72 let71)))
  (let ((let75 (= let74 let73)))
  (let ((let76 (ff.mul let48 let48)))
  (let ((let77 (= let76 let48)))
  (let ((let78 (ff.mul let54 let54)))
  (let ((let79 (= let78 let54)))
  (let ((let80 (ff.mul let60 let60)))
  (let ((let81 (= let80 let60)))
  (let ((let82 (ff.mul let66 let66)))
  (let ((let83 (= let82 let66)))
  (let ((let84 (ff.mul let71 let71)))
  (let ((let85 (= let84 let71)))
  (let ((let86 (ff.mul let72 let72)))
  (let ((let87 (= let86 let72)))
  (let ((let88 (and let87 let85 let83 let81 let79 let77 let75 let69 let63 let57 let51)))
  (let ((let89 out_alt))
  (let ((let90 out))
  (let ((let91 (= let90 let89)))
  (let ((let92 (not let91)))
  (let ((let93 (= let72 let28)))
  (let ((let94 (= let54 let10)))
  (let ((let95 (= let48 let4)))
  (let ((let96 (= let71 let27)))
  (let ((let97 (= let60 let16)))
  (let ((let98 (= let66 let22)))
  (let ((let99 (and let98 let97 let96 let95 let94 let93)))
  (let ((let100 (and let99 let92 let88 let44)))
  let100
)))))))))))))))))))))))))))))))))))))))))))))))))))))))))))))))))))))))))))))))))))))))))))))))))))))
)
(check-sat)
